50, 683
18, 23
26, 31
4, 9
16, 21
44, 49
24, 29
46, 51
44, 49
24, 29
30, 35
20, 25
18, 23
46, 51
44, 49
24, 29
18, 23
8, 13
24, 29
38, 43
10, 15
18, 23
10, 15
10, 15
18, 23
42, 47
26, 31
48, 53
10, 15
36, 41
6, 11
32, 37
38, 43
6, 11
48, 53
46, 51
30, 35
22, 27
36, 41
34, 39
32, 37
42, 47
4, 9
30, 35
24, 29
38, 43
30, 35
50, 55
42, 47
12, 17
18, 23
